Route 1: 93 75 2 5 27 29 30 6 32 33 34 36 38 37 39 28 26 23 18 17 19 16 14 12 15 13 25 9 11 10 8 21 22 24 20
Route 2: 63 67 62 74 72 61 64 66 69 68 65 49 55 54 53 56 58 60 59 57 40 44 46 41 42 45 51 50 35 31 52 47 43 48 90
Route 3: 89 7 98 1 99 100 95 94 92 97 3 4 88 84 82 83 86 85 76 71 70 73 80 79 81 78 77 96 87 91
Vehicles: 3
Distance: 725.15
